26
Properties=species:S:1:pos:R:3 pbc="F F F"
C        0.18180420      -1.39916762      -1.08528401
C       -0.69442547      -1.36728590       0.18379754
C        0.19242296      -1.06897682       1.41016018
C        0.88716687       0.29627128       1.22905167
C        1.76018534       0.26147151      -0.04215813
C        0.87640014      -0.03448081      -1.27129778
C       -0.19248997       1.06893473      -1.41034627
C       -1.06917594       1.10549288      -0.14169062
C       -1.76028052      -0.26126677       0.04209579
C       -0.18173636       1.39906334       1.08540328
H        0.93632280      -2.20126358      -1.00533048
H       -0.43778928      -1.63324783      -1.96867037
H       -1.19060710      -2.34427483       0.31523333
H       -0.41954103      -1.06441121       2.32914580
H        0.94703936      -1.86520187       1.53527689
H        1.52118279       0.50782280       2.10726316
H        2.28004431       1.22683697      -0.17205547
H        2.54367939      -0.51021078       0.05643604
H        1.50270314      -0.05919583      -2.17966595
H        0.29179360       2.04896138      -1.56550674
H       -0.81937458       0.88041930      -2.29945504
H       -1.83310471       1.89554534      -0.24284169
H       -2.41602864      -0.47401281      -0.82032463
H       -2.40794979      -0.24179661       0.93607871
H       -0.80085180       1.44871160       1.99824195
H        0.30261026       2.38526213       0.97644284
